# ORCA job from PDB
! B3LYP D3BJ def2-SVP Opt TightSCF CPCM(water)

* xyz +1 1
O          4.42286        0.29526        1.15471
C          4.25605        1.10556        0.25923
C          5.33687        1.69249       -0.64047
C          4.53204        2.45410       -1.72538
C          3.13517        2.48633       -1.19959
C          2.04824        3.15900       -1.72607
C          0.79251        3.02944       -1.10709
O         -0.18558        3.74548       -1.75103
C         -1.25883        4.23359       -0.95483
C          0.62654        2.18015        0.01716
O         -0.63790        2.04405        0.52531
C         -0.85372        1.07284        1.54109
C          1.74084        1.50920        0.54064
C          2.96438        1.68624       -0.08392
C          6.25330        0.61572       -1.23897
C          7.59048        0.41636       -0.48696
C          7.41773       -0.02795        0.97042
C          8.74821       -0.30767        1.65504
N          9.52470       -1.32878        0.86634
C          9.78153       -0.87156       -0.54761
C          8.45375       -0.60648       -1.24325
C         10.79288       -1.73392        1.59149
C         11.46783       -2.93342        0.98360
C         12.69419       -2.79688        0.31447
C         13.30256       -3.90380       -0.27875
C         12.69523       -5.15522       -0.20914
C         11.48267       -5.30542        0.45969
C         10.87080       -4.20217        1.05631
H          5.90803        2.41996       -0.05032
H          4.93032        3.46542       -1.85780
H          4.54668        1.93651       -2.69078
H          2.15150        3.78459       -2.60911
H         -1.69476        5.08965       -1.47969
H         -2.04305        3.47668       -0.86299
H         -0.92240        4.58851        0.02531
H         -1.92450        1.05876        1.76632
H         -0.57236        0.07149        1.19894
H         -0.32416        1.34259        2.46036
H          1.68481        0.85700        1.40402
H          5.72166       -0.34297       -1.29902
H          6.50625        0.89547       -2.27000
H          8.12499        1.37638       -0.48981
H          6.90460        0.75106        1.54366
H          6.79607       -0.93105        1.01219
H          8.58192       -0.71756        2.65679
H          9.36463        0.59545        1.72848
H          8.94903       -2.17834        0.80963
H         10.31888       -1.66476       -1.07486
H         10.40560        0.02769       -0.50115
H          7.90448       -1.55188       -1.34493
H          8.65177       -0.24690       -2.26011
H         11.45204       -0.85772        1.60573
H         10.51692       -1.96636        2.62707
H         13.19619       -1.83309        0.24766
H         14.25598       -3.79546       -0.79266
H         13.17365       -6.01802       -0.66872
H         11.02049       -6.28900        0.52097
H          9.93240       -4.35565        1.58540
*
