# ORCA job from PDB
! B3LYP D3BJ def2-SVP Opt TightSCF

* xyz +1 1
C          2.25200        2.68700       -0.30300
C          1.55100        1.36800       -0.05700
C          2.27500        0.26600        0.23900
O          3.64400        0.36800        0.28200
C          4.43000       -0.78900        0.17300
C          5.86600       -0.35800       -0.09100
C          6.44300        0.56600        0.98300
N          7.95300        0.69400        0.79800
C          8.33400        1.40200       -0.49500
C          8.47900        0.42800       -1.64700
C          7.82700        0.61900       -2.80800
C          7.95400       -0.24900       -3.82300
C          8.74500       -1.32600       -3.70000
C          9.41200       -1.51700       -2.55100
C          9.28200       -0.64600       -1.53900
F          8.86900       -2.18600       -4.69800
C          8.60200        1.27900        2.04700
C         10.11200        1.00000        1.98900
C          8.27600        2.77000        2.19300
O          6.70300       -1.48500       -0.14800
C          1.59600       -0.88500        0.42400
C          0.25600       -0.97700        0.35800
C         -0.46300       -2.29800        0.58700
C         -0.05400       -3.34600       -0.46100
C         -0.23300       -2.81600        2.01600
C         -0.43300        0.14200        0.08100
C          0.21100        1.29800       -0.12700
H          2.90800        2.95000        0.55800
H          2.88000        2.62500       -1.22100
H          1.54500        3.53500       -0.44300
H          4.37100       -1.37200        1.12100
H          4.07700       -1.40600       -0.68600
H          5.90100        0.14300       -1.08500
H          5.94600        1.56200        0.95400
H          6.22900        0.10300        1.97400
H          8.33300       -0.27900        0.72900
H          7.62100        2.22800       -0.71100
H          9.33600        1.87800       -0.41800
H          7.17100        1.49600       -2.93400
H          7.40400       -0.07900       -4.76400
H         10.06900       -2.39600       -2.43900
H          9.84000       -0.82200       -0.60500
H          8.21000        0.72600        2.93600
H         10.58500        1.23200        2.97200
H         10.31700       -0.07300        1.77100
H         10.64900        1.61600        1.23600
H          8.74700        3.17500        3.11700
H          7.18300        2.95800        2.28300
H          8.66100        3.37700        1.34400
H          6.36800       -2.22700        0.35700
H          2.14900       -1.80800        0.65100
H         -1.56500       -2.13900        0.47200
H         -0.64200       -4.28400       -0.33800
H         -0.23500       -2.97000       -1.49400
H          1.02200       -3.62100       -0.38200
H         -0.82300       -3.74200        2.20500
H         -0.54800       -2.05900        2.77000
H          0.83500       -3.06200        2.20600
H         -1.53300        0.12100        0.01400
H         -0.37900        2.20000       -0.36100
*
