# ORCA job from PDB
! B3LYP D3BJ def2-SVP Opt TightSCF

* xyz +1 1
H         -7.32600       -3.61100        2.17200
H         -7.05000       -1.94700        2.79300
C         -2.05800       -0.60800        0.25100
C         -0.62000       -0.17300        0.00600
C         -0.03900        0.70300        1.11600
N          1.46900        0.82900        0.93700
C          1.86000        1.54100       -0.35000
C          2.05600        0.56600       -1.49300
C         -6.23200       -0.78900        0.42100
H         -6.85600        2.41100       -0.19600
C          1.44100        0.74300       -2.67600
C          1.61200       -0.13000       -3.68000
C          2.41000       -1.19600       -3.51600
C          3.04100       -1.38300       -2.34700
F          3.83400       -2.42700       -2.16700
C          2.86300       -0.50100       -1.35000
C          2.07900        1.48000        2.16700
C         -6.73300       -2.68000        2.01600
H         -3.59300        2.85500       -1.03000
H         -4.92900        3.74200       -0.22700
H         -2.41100       -1.19200       -0.63100
H         -0.51900        1.70900        1.13700
H          2.84200        2.05400       -0.24800
H          0.78000        1.61200       -2.83000
H          2.55000       -1.91500       -4.33900
H          1.65100        1.01500        3.08700
H          4.02600        1.52400        3.16700
H          4.15200        1.76700        1.40800
H         -8.05700       -1.95000        0.48900
H         -7.13700       -4.07000       -0.38700
C          3.59100        1.21100        2.18900
O          0.21300       -1.30100       -0.09400
C         -4.89200       -0.70400        0.49400
H         -5.66600       -2.93500        2.20200
C         -6.95500       -2.11500        0.60300
C         -6.54500       -3.13000       -0.47600
H         -8.01700        0.32400        0.10700
H         -0.12100       -2.05900        0.38700
C         -6.91700        0.34000        0.17800
C         -6.26900        1.50000        0.01100
H          3.38800       -0.66300       -0.39500
H         -3.57100        3.12200        0.75900
H          1.86400       -0.13900        0.89500
H         -2.12100       -1.22500        1.17700
H         -0.57900        0.36700       -0.96800
H         -0.25300        0.20100        2.08900
H          1.13100        2.34900       -0.58200
H          1.09500        0.02600       -4.64200
H          1.85200        2.57000        2.19400
H          3.80600        0.12500        2.06300
H         -4.34300       -1.63500        0.69300
H         -6.72000       -2.72000       -1.49700
H         -5.47000       -3.41100       -0.40200
O         -2.84000        0.54800        0.40000
C         -4.21000        0.45100        0.35000
C         -4.92900        1.56400        0.08700
C         -4.22400        2.88900       -0.11300
*
