# ORCA job from PDB
! B3LYP D3BJ def2-SVP Opt TightSCF

* xyz +1 1
H         -0.06700        1.59200       -1.62900
H         -0.02500       -0.64000       -2.67200
N         -2.68800        1.33100       -2.17200
C         -3.82500        2.20600       -2.69000
H         -0.28200       -3.77400        4.98800
C         -7.42500        1.89800       -0.49000
C          0.42200       -1.65400        1.50100
C          2.98800       -1.07000        1.24200
H         -0.76100       -1.25400        5.45200
C         -3.10700       -0.13900       -2.15900
H         -3.64500       -0.35800       -3.11200
H         -6.63900        3.40900        0.76900
H         -2.85200        1.51300       -0.08000
H         -1.59500        3.80000       -0.10000
H         -1.91400        1.44100       -2.86800
F         -8.15100        0.25600       -1.95200
C          0.63700       -2.06100        3.96000
C         -1.29900       -1.32800       -0.74800
C          1.20200       -1.69800        2.59500
C         -5.10500        2.08000       -1.87700
C         -7.22600        1.12000       -1.56400
C         -0.40600       -1.03000        4.42100
H         -1.38800        3.65500       -1.91700
C         -6.07400        1.22300       -2.24700
C         -0.69200        1.88300       -0.78800
C          0.05600       -3.48500        3.96600
C          2.50300       -1.40200        2.44600
H          2.57200       -1.44000       -1.93800
H          0.82000       -4.22900        3.64200
H         -3.80400       -0.37200       -1.32200
H          4.05900       -0.82300        1.15000
H          0.02700       -0.00300        4.43200
C         -5.33200        2.86600       -0.80700
C          2.76200       -0.64000       -1.18600
H         -0.64200       -1.89300        1.64000
C         -1.49200        3.14400       -0.96200
H         -1.30100       -1.01500        3.76000
C         -1.87800       -1.05200       -2.13200
O          0.09700       -1.26700       -0.85300
C          0.88000       -1.33900        0.27200
H         -1.64600       -0.57000       -0.01400
H         -0.82300       -3.58200        3.29000
H         -0.25900        1.68500        0.19100
H         -3.51100        3.27200       -2.74600
C         -2.19400        1.81000       -0.89400
H         -2.10500       -2.03100       -2.62000
C         -6.47700        2.77000       -0.11500
O         -0.92000       -0.42300       -2.94500
H          3.86100       -0.47300       -1.15800
H         -8.36500        1.82200        0.08000
F         -4.39900        3.71800       -0.41900
H         -1.60800       -2.34000       -0.39700
H          2.29200        0.30400       -1.54500
H          1.46500       -2.04600        4.71400
H         -4.02300        1.93300       -3.75200
H         -5.93100        0.58400       -3.13400
C          2.19000       -1.03000        0.16100
H          3.18600       -1.42100        3.31200
*
